p tdp 16 52
1 10
1 13
1 14
2 5
2 7
2 8
2 9
2 11
2 12
2 14
3 4
3 7
3 8
3 12
3 13
3 15
4 5
4 6
4 7
4 8
4 9
4 11
4 13
5 8
5 9
5 10
5 13
5 14
5 16
6 8
6 13
6 15
6 16
7 8
7 11
7 12
7 14
7 15
7 16
8 9
8 14
8 16
9 11
9 16
10 11
10 13
10 14
10 16
11 13
12 13
12 14
15 16
